(set-logic QF_LRA)
(declare-fun X0 () Real )
(declare-fun Y0 () Real )
(declare-fun X1 () Real )
(declare-fun Y1 () Real )
(declare-fun X2 () Real )
(declare-fun Y2 () Real )
(declare-fun X3 () Real )
(declare-fun Y3 () Real )
(declare-fun X4 () Real )
(declare-fun Y4 () Real )
(declare-fun X5 () Real )
(declare-fun Y5 () Real )
(declare-fun X6 () Real )
(declare-fun Y6 () Real )
(declare-fun X7 () Real )
(declare-fun Y7 () Real )
(declare-fun X8 () Real )
(declare-fun Y8 () Real )
(declare-fun X9 () Real )
(declare-fun Y9 () Real )
(declare-fun X10 () Real )
(declare-fun Y10 () Real )
(declare-fun X11 () Real )
(declare-fun Y11 () Real )
(declare-fun Z () Real )
(assert ( and  
( or ( <= ( + X0 73 ) X1 )  ( <= ( + X1 8 ) X0 )  ( <= ( + Y0 23 ) Y1 )  ( <= ( + Y1 1 ) Y0 )  )
( or ( <= ( + X0 73 ) X2 )  ( <= ( + X2 42 ) X0 )  ( <= ( + Y0 23 ) Y2 )  ( <= ( + Y2 81 ) Y0 )  )
( or ( <= ( + X0 73 ) X3 )  ( <= ( + X3 44 ) X0 )  ( <= ( + Y0 23 ) Y3 )  ( <= ( + Y3 11 ) Y0 )  )
( or ( <= ( + X0 73 ) X4 )  ( <= ( + X4 38 ) X0 )  ( <= ( + Y0 23 ) Y4 )  ( <= ( + Y4 35 ) Y0 )  )
( or ( <= ( + X0 73 ) X5 )  ( <= ( + X5 15 ) X0 )  ( <= ( + Y0 23 ) Y5 )  ( <= ( + Y5 73 ) Y0 )  )
( or ( <= ( + X0 73 ) X6 )  ( <= ( + X6 47 ) X0 )  ( <= ( + Y0 23 ) Y6 )  ( <= ( + Y6 71 ) Y0 )  )
( or ( <= ( + X0 73 ) X7 )  ( <= ( + X7 23 ) X0 )  ( <= ( + Y0 23 ) Y7 )  ( <= ( + Y7 60 ) Y0 )  )
( or ( <= ( + X0 73 ) X8 )  ( <= ( + X8 23 ) X0 )  ( <= ( + Y0 23 ) Y8 )  ( <= ( + Y8 7 ) Y0 )  )
( or ( <= ( + X0 73 ) X9 )  ( <= ( + X9 9 ) X0 )  ( <= ( + Y0 23 ) Y9 )  ( <= ( + Y9 87 ) Y0 )  )
( or ( <= ( + X0 73 ) X10 )  ( <= ( + X10 96 ) X0 )  ( <= ( + Y0 23 ) Y10 )  ( <= ( + Y10 18 ) Y0 )  )
( or ( <= ( + X0 73 ) X11 )  ( <= ( + X11 45 ) X0 )  ( <= ( + Y0 23 ) Y11 )  ( <= ( + Y11 48 ) Y0 )  )
( or ( <= ( + X1 8 ) X2 )  ( <= ( + X2 42 ) X1 )  ( <= ( + Y1 1 ) Y2 )  ( <= ( + Y2 81 ) Y1 )  )
( or ( <= ( + X1 8 ) X3 )  ( <= ( + X3 44 ) X1 )  ( <= ( + Y1 1 ) Y3 )  ( <= ( + Y3 11 ) Y1 )  )
( or ( <= ( + X1 8 ) X4 )  ( <= ( + X4 38 ) X1 )  ( <= ( + Y1 1 ) Y4 )  ( <= ( + Y4 35 ) Y1 )  )
( or ( <= ( + X1 8 ) X5 )  ( <= ( + X5 15 ) X1 )  ( <= ( + Y1 1 ) Y5 )  ( <= ( + Y5 73 ) Y1 )  )
( or ( <= ( + X1 8 ) X6 )  ( <= ( + X6 47 ) X1 )  ( <= ( + Y1 1 ) Y6 )  ( <= ( + Y6 71 ) Y1 )  )
( or ( <= ( + X1 8 ) X7 )  ( <= ( + X7 23 ) X1 )  ( <= ( + Y1 1 ) Y7 )  ( <= ( + Y7 60 ) Y1 )  )
( or ( <= ( + X1 8 ) X8 )  ( <= ( + X8 23 ) X1 )  ( <= ( + Y1 1 ) Y8 )  ( <= ( + Y8 7 ) Y1 )  )
( or ( <= ( + X1 8 ) X9 )  ( <= ( + X9 9 ) X1 )  ( <= ( + Y1 1 ) Y9 )  ( <= ( + Y9 87 ) Y1 )  )
( or ( <= ( + X1 8 ) X10 )  ( <= ( + X10 96 ) X1 )  ( <= ( + Y1 1 ) Y10 )  ( <= ( + Y10 18 ) Y1 )  )
( or ( <= ( + X1 8 ) X11 )  ( <= ( + X11 45 ) X1 )  ( <= ( + Y1 1 ) Y11 )  ( <= ( + Y11 48 ) Y1 )  )
( or ( <= ( + X2 42 ) X3 )  ( <= ( + X3 44 ) X2 )  ( <= ( + Y2 81 ) Y3 )  ( <= ( + Y3 11 ) Y2 )  )
( or ( <= ( + X2 42 ) X4 )  ( <= ( + X4 38 ) X2 )  ( <= ( + Y2 81 ) Y4 )  ( <= ( + Y4 35 ) Y2 )  )
( or ( <= ( + X2 42 ) X5 )  ( <= ( + X5 15 ) X2 )  ( <= ( + Y2 81 ) Y5 )  ( <= ( + Y5 73 ) Y2 )  )
( or ( <= ( + X2 42 ) X6 )  ( <= ( + X6 47 ) X2 )  ( <= ( + Y2 81 ) Y6 )  ( <= ( + Y6 71 ) Y2 )  )
( or ( <= ( + X2 42 ) X7 )  ( <= ( + X7 23 ) X2 )  ( <= ( + Y2 81 ) Y7 )  ( <= ( + Y7 60 ) Y2 )  )
( or ( <= ( + X2 42 ) X8 )  ( <= ( + X8 23 ) X2 )  ( <= ( + Y2 81 ) Y8 )  ( <= ( + Y8 7 ) Y2 )  )
( or ( <= ( + X2 42 ) X9 )  ( <= ( + X9 9 ) X2 )  ( <= ( + Y2 81 ) Y9 )  ( <= ( + Y9 87 ) Y2 )  )
( or ( <= ( + X2 42 ) X10 )  ( <= ( + X10 96 ) X2 )  ( <= ( + Y2 81 ) Y10 )  ( <= ( + Y10 18 ) Y2 )  )
( or ( <= ( + X2 42 ) X11 )  ( <= ( + X11 45 ) X2 )  ( <= ( + Y2 81 ) Y11 )  ( <= ( + Y11 48 ) Y2 )  )
( or ( <= ( + X3 44 ) X4 )  ( <= ( + X4 38 ) X3 )  ( <= ( + Y3 11 ) Y4 )  ( <= ( + Y4 35 ) Y3 )  )
( or ( <= ( + X3 44 ) X5 )  ( <= ( + X5 15 ) X3 )  ( <= ( + Y3 11 ) Y5 )  ( <= ( + Y5 73 ) Y3 )  )
( or ( <= ( + X3 44 ) X6 )  ( <= ( + X6 47 ) X3 )  ( <= ( + Y3 11 ) Y6 )  ( <= ( + Y6 71 ) Y3 )  )
( or ( <= ( + X3 44 ) X7 )  ( <= ( + X7 23 ) X3 )  ( <= ( + Y3 11 ) Y7 )  ( <= ( + Y7 60 ) Y3 )  )
( or ( <= ( + X3 44 ) X8 )  ( <= ( + X8 23 ) X3 )  ( <= ( + Y3 11 ) Y8 )  ( <= ( + Y8 7 ) Y3 )  )
( or ( <= ( + X3 44 ) X9 )  ( <= ( + X9 9 ) X3 )  ( <= ( + Y3 11 ) Y9 )  ( <= ( + Y9 87 ) Y3 )  )
( or ( <= ( + X3 44 ) X10 )  ( <= ( + X10 96 ) X3 )  ( <= ( + Y3 11 ) Y10 )  ( <= ( + Y10 18 ) Y3 )  )
( or ( <= ( + X3 44 ) X11 )  ( <= ( + X11 45 ) X3 )  ( <= ( + Y3 11 ) Y11 )  ( <= ( + Y11 48 ) Y3 )  )
( or ( <= ( + X4 38 ) X5 )  ( <= ( + X5 15 ) X4 )  ( <= ( + Y4 35 ) Y5 )  ( <= ( + Y5 73 ) Y4 )  )
( or ( <= ( + X4 38 ) X6 )  ( <= ( + X6 47 ) X4 )  ( <= ( + Y4 35 ) Y6 )  ( <= ( + Y6 71 ) Y4 )  )
( or ( <= ( + X4 38 ) X7 )  ( <= ( + X7 23 ) X4 )  ( <= ( + Y4 35 ) Y7 )  ( <= ( + Y7 60 ) Y4 )  )
( or ( <= ( + X4 38 ) X8 )  ( <= ( + X8 23 ) X4 )  ( <= ( + Y4 35 ) Y8 )  ( <= ( + Y8 7 ) Y4 )  )
( or ( <= ( + X4 38 ) X9 )  ( <= ( + X9 9 ) X4 )  ( <= ( + Y4 35 ) Y9 )  ( <= ( + Y9 87 ) Y4 )  )
( or ( <= ( + X4 38 ) X10 )  ( <= ( + X10 96 ) X4 )  ( <= ( + Y4 35 ) Y10 )  ( <= ( + Y10 18 ) Y4 )  )
( or ( <= ( + X4 38 ) X11 )  ( <= ( + X11 45 ) X4 )  ( <= ( + Y4 35 ) Y11 )  ( <= ( + Y11 48 ) Y4 )  )
( or ( <= ( + X5 15 ) X6 )  ( <= ( + X6 47 ) X5 )  ( <= ( + Y5 73 ) Y6 )  ( <= ( + Y6 71 ) Y5 )  )
( or ( <= ( + X5 15 ) X7 )  ( <= ( + X7 23 ) X5 )  ( <= ( + Y5 73 ) Y7 )  ( <= ( + Y7 60 ) Y5 )  )
( or ( <= ( + X5 15 ) X8 )  ( <= ( + X8 23 ) X5 )  ( <= ( + Y5 73 ) Y8 )  ( <= ( + Y8 7 ) Y5 )  )
( or ( <= ( + X5 15 ) X9 )  ( <= ( + X9 9 ) X5 )  ( <= ( + Y5 73 ) Y9 )  ( <= ( + Y9 87 ) Y5 )  )
( or ( <= ( + X5 15 ) X10 )  ( <= ( + X10 96 ) X5 )  ( <= ( + Y5 73 ) Y10 )  ( <= ( + Y10 18 ) Y5 )  )
( or ( <= ( + X5 15 ) X11 )  ( <= ( + X11 45 ) X5 )  ( <= ( + Y5 73 ) Y11 )  ( <= ( + Y11 48 ) Y5 )  )
( or ( <= ( + X6 47 ) X7 )  ( <= ( + X7 23 ) X6 )  ( <= ( + Y6 71 ) Y7 )  ( <= ( + Y7 60 ) Y6 )  )
( or ( <= ( + X6 47 ) X8 )  ( <= ( + X8 23 ) X6 )  ( <= ( + Y6 71 ) Y8 )  ( <= ( + Y8 7 ) Y6 )  )
( or ( <= ( + X6 47 ) X9 )  ( <= ( + X9 9 ) X6 )  ( <= ( + Y6 71 ) Y9 )  ( <= ( + Y9 87 ) Y6 )  )
( or ( <= ( + X6 47 ) X10 )  ( <= ( + X10 96 ) X6 )  ( <= ( + Y6 71 ) Y10 )  ( <= ( + Y10 18 ) Y6 )  )
( or ( <= ( + X6 47 ) X11 )  ( <= ( + X11 45 ) X6 )  ( <= ( + Y6 71 ) Y11 )  ( <= ( + Y11 48 ) Y6 )  )
( or ( <= ( + X7 23 ) X8 )  ( <= ( + X8 23 ) X7 )  ( <= ( + Y7 60 ) Y8 )  ( <= ( + Y8 7 ) Y7 )  )
( or ( <= ( + X7 23 ) X9 )  ( <= ( + X9 9 ) X7 )  ( <= ( + Y7 60 ) Y9 )  ( <= ( + Y9 87 ) Y7 )  )
( or ( <= ( + X7 23 ) X10 )  ( <= ( + X10 96 ) X7 )  ( <= ( + Y7 60 ) Y10 )  ( <= ( + Y10 18 ) Y7 )  )
( or ( <= ( + X7 23 ) X11 )  ( <= ( + X11 45 ) X7 )  ( <= ( + Y7 60 ) Y11 )  ( <= ( + Y11 48 ) Y7 )  )
( or ( <= ( + X8 23 ) X9 )  ( <= ( + X9 9 ) X8 )  ( <= ( + Y8 7 ) Y9 )  ( <= ( + Y9 87 ) Y8 )  )
( or ( <= ( + X8 23 ) X10 )  ( <= ( + X10 96 ) X8 )  ( <= ( + Y8 7 ) Y10 )  ( <= ( + Y10 18 ) Y8 )  )
( or ( <= ( + X8 23 ) X11 )  ( <= ( + X11 45 ) X8 )  ( <= ( + Y8 7 ) Y11 )  ( <= ( + Y11 48 ) Y8 )  )
( or ( <= ( + X9 9 ) X10 )  ( <= ( + X10 96 ) X9 )  ( <= ( + Y9 87 ) Y10 )  ( <= ( + Y10 18 ) Y9 )  )
( or ( <= ( + X9 9 ) X11 )  ( <= ( + X11 45 ) X9 )  ( <= ( + Y9 87 ) Y11 )  ( <= ( + Y11 48 ) Y9 )  )
( or ( <= ( + X10 96 ) X11 )  ( <= ( + X11 45 ) X10 )  ( <= ( + Y10 18 ) Y11 )  ( <= ( + Y11 48 ) Y10 )  )
( >= X0 0)
( <= ( + X0 73) Z)
( >= Y0 0)
( <= ( + Y0 23 ) 173)
( >= X1 0)
( <= ( + X1 8) Z)
( >= Y1 0)
( <= ( + Y1 1 ) 173)
( >= X2 0)
( <= ( + X2 42) Z)
( >= Y2 0)
( <= ( + Y2 81 ) 173)
( >= X3 0)
( <= ( + X3 44) Z)
( >= Y3 0)
( <= ( + Y3 11 ) 173)
( >= X4 0)
( <= ( + X4 38) Z)
( >= Y4 0)
( <= ( + Y4 35 ) 173)
( >= X5 0)
( <= ( + X5 15) Z)
( >= Y5 0)
( <= ( + Y5 73 ) 173)
( >= X6 0)
( <= ( + X6 47) Z)
( >= Y6 0)
( <= ( + Y6 71 ) 173)
( >= X7 0)
( <= ( + X7 23) Z)
( >= Y7 0)
( <= ( + Y7 60 ) 173)
( >= X8 0)
( <= ( + X8 23) Z)
( >= Y8 0)
( <= ( + Y8 7 ) 173)
( >= X9 0)
( <= ( + X9 9) Z)
( >= Y9 0)
( <= ( + Y9 87 ) 173)
( >= X10 0)
( <= ( + X10 96) Z)
( >= Y10 0)
( <= ( + Y10 18 ) 173)
( >= X11 0)
( <= ( + X11 45) Z)
( >= Y11 0)
( <= ( + Y11 48 ) 173)
) )
(minimize Z)
(check-sat)
